(set-logic QF_LRA)

(declare-fun x0 () Real)
(declare-fun x1 () Real)
(declare-fun x2 () Real)
(declare-fun x3 () Real)
(declare-fun x4 () Real)
(declare-fun x5 () Real)
(declare-fun x6 () Real)
(declare-fun x7 () Real)
(declare-fun x8 () Real)
(declare-fun x9 () Real)
(declare-fun x10 () Real)
(declare-fun x11 () Real)
(declare-fun x12 () Real)
(declare-fun x13 () Real)
(declare-fun x14 () Real)
(declare-fun x15 () Real)
(declare-fun x16 () Real)
(declare-fun x17 () Real)
(declare-fun x18 () Real)
(declare-fun x19 () Real)
(declare-fun x20 () Real)

(declare-fun y0 () Real)
(declare-fun y1 () Real)
(declare-fun y2 () Real)
(declare-fun y3 () Real)
(declare-fun y4 () Real)
(declare-fun y5 () Real)
(declare-fun y6 () Real)
(declare-fun y7 () Real)
(declare-fun y8 () Real)
(declare-fun y9 () Real)
(declare-fun y10 () Real)
(declare-fun y11 () Real)
(declare-fun y12 () Real)
(declare-fun y13 () Real)
(declare-fun y14 () Real)
(declare-fun y15 () Real)
(declare-fun y16 () Real)
(declare-fun y17 () Real)
(declare-fun y18 () Real)
(declare-fun y19 () Real)
(declare-fun y20 () Real)

(assert (and
    (<= x0 100000)
    (<= x1 100000)
    (<= x2 100000)
    (<= x3 100000)
    (<= x4 100000)
    (<= x5 100000)
    (<= x6 100000)
    (<= x7 100000)
    (<= x8 100000)
    (<= x9 100000)
    (<= x10 100000)
    (<= x11 100000)
    (<= x12 100000)
    (<= x13 100000)
    (<= x14 100000)
    (<= x15 100000)
    (<= x16 100000)
    (<= x17 100000)
    (<= x18 100000)
    (<= x19 100000)
    (<= x20 100000)

    (<= y0 100000)
    (<= y1 100000)
    (<= y2 100000)
    (<= y3 100000)
    (<= y4 100000)
    (<= y5 100000)
    (<= y6 100000)
    (<= y7 100000)
    (<= y8 100000)
    (<= y9 100000)
    (<= y10 100000)
    (<= y11 100000)
    (<= y12 100000)
    (<= y13 100000)
    (<= y14 100000)
    (<= y15 100000)
    (<= y16 100000)
    (<= y17 100000)
    (<= y18 100000)
    (<= y19 100000)
    (<= y20 100000)

    (= x0 0)
    (= y0 0)
    (or 
        (and (= x1 (+ x0 1)) (= y1 (+ y0 1)))
        (and (= x1 x0) (= y1 y0))
    )
    (or 
        (and (= x2 (+ x1 1)) (= y2 (+ y1 1)))
        (and (= x2 x1) (= y2 y1))
    )
    (or 
        (and (= x3 (+ x2 1)) (= y3 (+ y2 1)))
        (and (= x3 x2) (= y3 y2))
    )
    (or 
        (and (= x4 (+ x3 1)) (= y4 (+ y3 1)))
        (and (= x4 x3) (= y4 y3))
    )
    (or 
        (and (= x5 (+ x4 1)) (= y5 (+ y4 1)))
        (and (= x5 x4) (= y5 y4))
    )
    (or 
        (and (= x6 (+ x5 1)) (= y6 (+ y5 1)))
        (and (= x6 x5) (= y6 y5))
    )
    (or 
        (and (= x7 (+ x6 1)) (= y7 (+ y6 1)))
        (and (= x7 x6) (= y7 y6))
    )
    (or 
        (and (= x8 (+ x7 1)) (= y8 (+ y7 1)))
        (and (= x8 x7) (= y8 y7))
    )
    (or 
        (and (= x9 (+ x8 1)) (= y9 (+ y8 1)))
        (and (= x9 x8) (= y9 y8))
    )
    (or 
        (and (= x10 (+ x9 1)) (= y10 (+ y9 1)))
        (and (= x10 x9) (= y10 y9))
    )
    
))